NAME: eil101
TYPE: TOUR
DIMENSION: 101
TOUR_SECTION
37
98
68
80
59
92
99
96
3
77
33
81
100
85
93
95
97
6
94
21
73
22
74
72
91
79
25
55
75
5
84
40
58
56
76
41
60
83
87
1
69
13
16
61
32
90
53
101
63
27
30
70
31
88
34
78
89
48
82
50
14
44
2
57
7
9
17
51
10
62
12
86
28
8
45
47
18
35
71
39
11
19
26
20
24
29
36
42
15
43
23
52
54
4
66
49
46
67
65
38
64
EOF